10225   0,263
9927   0,29
9858   0,298
9613   0,3
7411   8,057
7332   14,583
7317   112,006
7268   122,29
7263   277,517
7256   278,924
7238   283,346
7228   283,878
7206   338,698
7124   1175,087
